(declare-const |head@pos'| Int)
(declare-const |__cil_tmp110'| Int)
(declare-const |head'| Int)
(declare-const node Int)
(declare-const |__cil_tmp106'| Int)
(declare-const |head@width'| Int)
(assert (exists ((type_err?1 Int) (type_err?2 Int) (tr?3 Int) (head?4 Int))
         (and (or (<= (+ (- head?4) node 5) 0) (<= (+ head?4 (- node) -3) 0))
                (= (+ (- type_err?1) |head@width'|) 0)
                (= (+ (- type_err?2) |head@pos'|) 0)
                (= (+ (- tr?3) |head'|) 0)
                (= (+ |__cil_tmp110'| (- node) -4) 0)
                (= (+ |__cil_tmp106'| (- head?4)) 0))))
(check-sat)
